! sample:36c07edb-6e91-4031-9bed-b48786bb3054

&CONTROL
   calculation = 'vc-relax',
   prefix = 'silicon',
   outdir = './',
   pseudo_dir = '/mnt/c/Users/menon/Documents/repos/projects-iuc17/atomRDF/examples/workflow_examples/qe_run',
/

&SYSTEM
   ecutwfc = 12,
   ibrav = 0,
   nat = 8,
   ntyp = 1,
/

&ELECTRONS
/

&IONS
/

&CELL
/

K_POINTS automatic

4 4 4   1 1 1

CELL_PARAMETERS angstrom

5.43 0.0 0.0
0.0 5.43 0.0
0.0 0.0 5.43

ATOMIC_SPECIES 

Si 28.085 Si.pbe-n-rrkjus_psl.1.0.0.UPF

ATOMIC_POSITIONS crystal

Si 0.0 0.0 0.0
Si 0.25 0.25 0.25
Si 0.5 0.5 0.0
Si 0.75 0.75 0.25
Si 0.5 0.0 0.5
Si 0.0 0.5 0.5
Si 0.75 0.25 0.75
Si 0.25 0.75 0.75

